NAME : pr76
COMMENT : 76-city problem (Padberg/Rinaldi)
TYPE : TSP
DIMENSION : 6
EDGE_WEIGHT_TYPE : EUC_2D
NODE_COORD_SECTION
  1   1   3
  2   5   8
  3  10   8
  4  10   5
  5   5   3
  6   3   2.1
EOF
